# Quench to 300K following the procedure of Litton et al., J. App. Phys. 2001
variable qrate equal 10

# Variable definitions
variable t_amorph equal 10000
variable t_lo equal 300
variable seed equal 12345
variable ts equal 0.5
variable steptime equal ${qrate}*1000/${ts}

# Initialization
units		real
boundary	p p p
atom_style	full
dimension 	3
processors 	* * *

read_restart    restart.SiO2_10K_melt remap

# Use the ReaxFF forcefield, parameters from Fogarty et al., JCP 2010
pair_style reax/c NULL checkqeq yes
pair_coeff * * ffield.reax Si O

neighbor 2.0 bin
neigh_modify check yes

fix chrg all qeq/reax 1 0.0 10.0 1.0e-3 reax/c

restart ${steptime} restart.SiO2_quench_${qrate}ps_reax.*

thermo 100

compute pe_quench all pe
compute t_quench all temp
fix	pe_log all ave/time 1 100 100 c_pe_quench c_t_quench file SiO2_quench_${qrate}ps_pe.txt

dump        traj all xtc 100 SiO2_quench_${qrate}ps_reax.xtc

timestep ${ts}

# Cool at 8000K
fix		integrator	all nvt	temp	8000 8000 100
run ${steptime}

# Cool at 6000K
unfix integrator
fix		integrator	all nvt	temp	6000 6000 100
run ${steptime}

# Cool at 4000K
unfix integrator
fix		integrator	all nvt	temp	4000 4000 100
run ${steptime}

# Cool at 3000K
unfix integrator
fix		integrator	all nvt	temp	3000 3000 100
run ${steptime}

# Cool at 2000K
unfix integrator
fix		integrator	all nvt	temp	2000 2000 100
run ${steptime}

# Cool at 1000K
unfix integrator
fix		integrator	all nvt	temp	1000 1000 100
run ${steptime}

# Cool at 300K
unfix integrator
fix		integrator	all nvt	temp	${t_lo} ${t_lo} 100
run ${steptime}

write_data data.SiO2_quench_${qrate}ps_reax.txt
